qe/outputs/qe/cbrdelay_l0_discretize/T=5,eliminate=[I_0,I_1,I_2,I_3,I_4,L_2,L_3,L_4,lhs=Q_4].smt2
; benchmark generated from python API
(set-info :status unknown)
(declare-fun S_2 () Real)
(declare-fun S_4 () Real)
(declare-fun C () Real)
(declare-fun B () Real)
(declare-fun S_3 () Real)
(declare-fun A_0 () Real)
(declare-fun L_0 () Real)
(declare-fun S_0 () Real)
(declare-fun S_1 () Real)
(declare-fun L0 () Real)
(declare-fun A_4 () Real)
(declare-fun Q_4 () Real)
(declare-fun A_2 () Real)
(declare-fun A_1 () Real)
(declare-fun A_3 () Real)
(declare-fun L_1 () Real)
(assert
 (let (($x16282 (>= (+ (* (- 1.0) B) (* (- 1.0) C) S_4 (* (- 1.0) S_2)) 0.0)))
 (let (($x37 (>= L0 0.0)))
 (let (($x553 (>= C 5.0)))
 (let (($x965 (= Q_4 0.0)))
 (let (($x17549 (<= (+ (* 2.0 C) A_1 (* (- 1.0) L_0) (* (- 1.0) S_4)) 0.0)))
 (let (($x17463 (<= 0.0 (+ C (* (- 1.0) A_1) L_0 S_0))))
 (let (($x17464 (not $x17463)))
 (let ((?x515 (* (- 1.0) Q_4)))
 (let ((?x3635 (* (- 4.0) C)))
 (let ((?x601 (* (- 1.0) L_0)))
 (let ((?x16586 (+ ?x601 ?x3635 ?x515 A_4)))
 (let (($x16990 (= (+ (* (- 1.0) C) ?x515 A_4 B (* (- 1.0) A_3)) 0.0)))
 (let (($x16641 (>= S_1 ?x16586)))
 (let (($x16485 (<= 0.0 (+ C A_2 (* (- 1.0) A_3)))))
 (let (($x1685 (= Q_4 B)))
 (let (($x928 (<= L_1 L_0)))
 (let (($x832 (not $x928)))
 (let (($x17146 (<= A_1 (+ (* (- 3.0) C) ?x515 A_4))))
 (let (($x17147 (not $x17146)))
 (let (($x19101 (or $x1685 $x16485 $x16990 $x17147 (<= (+ (* (- 1.0) C) A_1 (* (- 1.0) A_0)) 0.0))))
 (let (($x17520 (= (+ (* 3.0 C) A_1 Q_4 (* (- 1.0) A_4)) 0.0)))
 (let (($x16396 (<= 0.0 (+ (* (- 1.0) B) (* (- 2.0) C) L_0 S_4 (* (- 1.0) A_0)))))
 (let (($x17876 (not $x16485)))
 (let (($x17498 (<= (+ ?x515 B (* (- 2.0) C) (* (- 1.0) A_2) A_4) 0.0)))
 (let ((?x3630 (* (- 3.0) C)))
 (let ((?x16579 (+ ?x601 ?x3630 ?x515 A_4)))
 (let (($x16718 (>= S_2 ?x16579)))
 (let ((?x339 (* (- 1.0) C)))
 (let ((?x16682 (+ ?x601 ?x339 ?x515 A_4)))
 (let (($x16683 (>= S_4 ?x16682)))
 (let ((?x1088 (* (- 2.0) C)))
 (let ((?x16722 (+ ?x601 ?x1088 ?x515 A_4)))
 (let (($x16723 (>= S_3 ?x16722)))
 (let (($x16524 (<= (+ A_3 (* (- 1.0) A_1) ?x1088) 0.0)))
 (let (($x304 (<= (+ A_2 (* (- 1.0) A_1) ?x339) 0.0)))
 (let (($x297 (not $x304)))
 (let (($x32227 (or $x832 $x1685 (>= S_0 (+ ?x601 (* (- 5.0) C) ?x515 A_4)) $x16990 $x17498)))
 (let (($x31394 (or (<= (+ A_1 ?x601 (* (- 1.0) S_2)) 0.0) (<= (+ C S_0 (* (- 1.0) S_2)) 0.0))))
 (let (($x20568 (or (<= (+ (* 2.0 C) S_0 (* (- 1.0) S_3)) 0.0) (<= (+ C A_1 (* (- 1.0) S_3) ?x601) 0.0))))
 (let (($x17483 (not (<= 0.0 (+ (* (- 1.0) B) ?x339 (* (- 1.0) A_1) L_0 S_4)))))
 (let (($x54 (= L_1 L_0)))
 (let (($x1343 (not (<= Q_4 0.0))))
 (let (($x31108 (or $x54 $x297 $x1685 (not $x16524) (not (<= (+ A_1 (* 3.0 C) Q_4 (* (- 1.0) A_4)) B)) (= (+ (* (- 1.0) A_1) B ?x3630 ?x515 A_4) 0.0))))
 (let (($x1156 (not (= L_0 L_1))))
 (let (($x32524 (or $x54 (<= S_4 (+ A_1 (* (- 1.0) L_1) (* (- 1.0) B) (* 3.0 C))))))
 (let (($x16419 (or $x54 (<= S_3 (+ A_1 (* (- 1.0) L_1) (* (- 1.0) B) (* 2.0 C))))))
 (let (($x1684 (or $x965 $x1343)))
 (let (($x111 (>= S_1 S_0)))
 (let (($x120 (>= S_4 S_3)))
 (let (($x36 (>= L_0 L0)))
 (let (($x114 (>= S_2 S_1)))
 (let (($x117 (>= S_3 S_2)))
 (let (($x122 (>= A_1 A_0)))
 (let (($x124 (>= A_3 A_2)))
 (let (($x125 (>= A_4 A_3)))
 (and (<= (+ A_1 (* (- 1.0) L_1)) S_4) $x125 $x124 $x122 $x117 $x114 $x36 $x120 $x111 (or $x54 $x832) (<= Q_4 B) (or $x1156 (>= S_2 (+ A_1 ?x601 (* (- 1.0) B)))) (>= S_2 (+ A_1 (* (- 1.0) L_1) (* (- 1.0) B))) (<= (+ (* (- 1.0) B) (* (- 1.0) L_1) A_1 ?x339) (+ A_0 ?x601)) (or $x54 (<= S_0 (+ (* (- 1.0) B) (* (- 1.0) L_1) A_1 ?x339))) (>= S_3 (+ A_1 (* (- 1.0) L_1) (* (- 1.0) B) C)) (>= S_4 (+ A_1 (* (- 1.0) L_1) (* (- 1.0) B) (* 2.0 C))) (or $x54 (<= S_1 (+ A_1 (* (- 1.0) L_1) (* (- 1.0) B)))) $x1684 (not (<= (+ A_2 (* (- 1.0) L_1)) S_4)) (or $x54 (<= S_2 (+ A_1 (* (- 1.0) L_1) (* (- 1.0) B) C))) $x16419 $x32524 (<= (+ ?x1088 (* (- 1.0) S_3) S_4) 0.0) (or $x1156 (>= S_1 (+ (* (- 1.0) B) ?x601 A_1 ?x339))) $x31108 (or $x1343 (<= 0.0 (+ C A_3 (* (- 1.0) A_4)))) (>= S_0 (+ (* (- 1.0) B) (* (- 1.0) L_1) A_1 ?x1088)) (or $x54 (not (<= (+ A_1 (* (- 1.0) L_1) C) S_4))) (>= S_1 (+ (* (- 1.0) B) (* (- 1.0) L_1) A_1 ?x339)) (or $x965 (<= (+ A_1 (* 3.0 C) Q_4 (* (- 1.0) A_4)) B)) (or $x832 $x1685 $x16485 $x16683 $x16990) (<= (+ ?x3630 S_4 (* (- 1.0) S_2)) 0.0) (<= (+ A_3 C Q_4 (* (- 1.0) A_4)) B) (or $x965 (<= S_2 ?x16722)) $x17483 (<= (+ ?x3630 (* (- 1.0) A_1) L_0 S_4) 0.0) (<= (+ (* (- 1.0) A_1) L_0 S_1) 0.0) $x20568 (or $x54 $x304 $x1685 $x16990 $x17498) $x31394 (<= (+ ?x3630 L_0 S_3 (* (- 1.0) A_0)) 0.0) $x32227 (or $x832 $x1685 (<= (+ ?x3635 ?x515 A_4) A_0) $x17498 $x17876) (or (<= (+ (* 3.0 C) S_0 (* (- 1.0) S_4)) 0.0) $x17463) (<= (+ ?x1088 (* (- 1.0) A_1) S_3 L_0) 0.0) (<= (+ ?x3635 S_4 (* (- 1.0) S_1)) 0.0) (not (<= 0.0 (+ (* (- 1.0) B) ?x1088 S_4 (* (- 1.0) S_1)))) (not (<= 0.0 (+ (* (- 1.0) B) ?x3630 (* (- 1.0) S_0) S_4))) (<= (+ (* (- 5.0) C) (* (- 1.0) S_0) S_4) 0.0) (or $x297 $x928 $x1685 $x16524 $x16990) (or $x832 $x1685 $x16485 $x16723 $x16990) (or $x832 $x1685 $x16485 $x16718 $x16990) (or $x832 $x1685 $x16723 $x17498 $x17876) (or $x832 $x1685 $x16683 $x17498 $x17876) (or $x832 $x1685 $x16718 $x17498 $x17876) (or $x832 $x1685 $x16641 $x17498 $x17876) (or $x1685 $x17147 $x17498 $x17520 $x17876) (<= S_4 (+ ?x601 ?x515 A_4)) (or $x965 (<= S_3 ?x16682)) (not $x16396) (<= (+ ?x1088 S_2 (* (- 1.0) S_1)) 0.0) (<= (+ ?x339 (* (- 1.0) A_1) L_0 S_2) 0.0) (or $x1685 $x16485 $x16990 $x17147 $x17520) $x19101 (or $x832 $x1685 $x16485 (<= (+ ?x3635 ?x515 A_4) A_0) $x16990) (or $x832 $x1685 $x16485 $x16641 $x16990) (or $x965 (<= S_1 ?x16579)) (<= (+ ?x339 L_0 S_1 (* (- 1.0) A_0)) 0.0) (<= (+ ?x3635 L_0 S_4 (* (- 1.0) A_0)) 0.0) (<= (+ ?x3635 (* (- 1.0) S_0) S_3) 0.0) (<= (+ ?x3630 S_3 (* (- 1.0) S_1)) 0.0) (<= (+ ?x1088 (* (- 1.0) S_0) S_1) 0.0) (or $x965 (<= S_0 ?x16586) $x17463) (or $x965 $x17146 $x17464) (or $x17464 $x17549) (or $x965 (<= (+ A_2 (* 2.0 C) Q_4 (* (- 1.0) A_4)) B)) $x553 $x37 (<= (+ C (* (- 1.0) S_4) S_2) 0.0) (<= (+ L_0 S_0 (* (- 1.0) A_0)) 0.0) (<= (+ (* 2.0 C) (* (- 1.0) S_4) S_1) 0.0) (<= (+ C (* (- 1.0) S_3) S_1) 0.0) (<= (+ ?x1088 S_3 (* (- 1.0) S_2)) 0.0) (not (>= (+ (* (- 1.0) B) C) 0.0)) (<= (+ ?x3630 (* (- 1.0) S_0) S_2) 0.0) (<= (+ ?x1088 L_0 S_2 (* (- 1.0) A_0)) 0.0) (not (>= (+ (* (- 1.0) B) (* (- 1.0) S_3) S_4) 0.0)) (not $x16282))))))))))))))))))))))))))))))))))))))))))))))))))))))))))
(check-sat)
